
  22   10
  10   10   10   10   10   10   10   10   10   10

   0   0   0   0   0   0   0   0   0   0   0   5 2 3 5 7 8 
   3   0   0  10   0   0   0   0   0   0   0   3 10 9 4 
   1   0   0   0   0   0   0   0   0   0  10   2 6 4 
   9   0   0   0   0   0   0   0   0   0  10   7 21 19 16 15 14 12 11 
   7   0   0   0   0   0  10   0   0   0   0   7 21 19 16 15 14 12 11 
  10   0   0   0  10   0   0   0   0   0   0   5 21 16 15 12 9 
   5   0   0   0   0   0   0   0   0  10   0   4 20 19 18 12 
   4   0   0   0   0  10   0   0   0   0   0   3 15 14 11 
   3   0  10   0   0   0   0   0   0   0   0   2 19 11 
   8   0   0   0   0   0  10   0   0   0   0   2 14 11 
   5   0   0   0   0   0  10   0   0   0   0   2 18 13 
   5   0   0   0   0   0   0   0   0   0  10   1 13 
   9   0   0   0   0   0   0  10   0   0   0   1 17 
   9  10   0   0   0   0   0   0   0   0   0   1 18 
   6   0   0  10   0   0   0   0   0   0   0   1 17 
   1   0   0   0  10   0   0   0   0   0   0   1 20 
   5   0  10   0   0   0   0   0   0   0   0   1 22
   4   0   0   0   0   0   0   0   0   0  10   1 22
   2   0   0   0   0   0   0   0   0   0  10   1 22
   1   0   0  10   0   0   0   0   0   0   0   1 22
   3   0   0   0   0   0   0   0   0  10   0   1 22
   0   0   0   0   0   0   0   0   0   0   0   0 
